peakDumbCharging = 22200; 
Machine = anon_enum(16); 
machineSpeed = [3700,3700,3700,3700,3700,3700,3700,3700,3700,3700,3700,3700,3700,3700,3700,3700]; 
machineLoad = [3700,3700,3700,3700,3700,3700,3700,3700,3700,3700,3700,3700,3700,3700,3700,3700]; 
Car = anon_enum(29); 
demandCar = [2320,11520,2800,3880,6800,8280,9080,21880,17240,7920,2160,3280,6520,6040,3480,9680,2640,1960,6040,3680,9840,6480,10400,3640,5200,4040,1920,8040,12520]; 
arrivalCar = [66,65,64,62,62,59,58,58,54,54,53,53,52,52,48,47,45,44,44,41,41,38,37,36,35,35,34,33,31]; 
departureCar = [68,69,68,65,69,65,62,68,62,57,55,55,57,55,50,51,47,47,47,44,47,41,41,38,38,38,36,37,36]; 
